
  22   10
  10   10   10   10   10   10   10   10   10   10

   0   0   0   0   0   0   0   0   0   0   0   1 2 
  10  10  10  10  10  10  10  10  10  10  10   2 5 3 
   2  10  10  10  10  10  10  10  10  10  10   1 4 
   7  10  10  10  10  10  10  10  10  10  10   1 6 
   7  10  10  10  10  10  10  10  10  10  10   1 6 
   5  10  10  10  10  10  10  10  10  10  10   2 8 7 
   9  10  10  10  10  10  10  10  10  10  10   4 21 15 14 9 
   9  10  10  10  10  10  10  10  10  10  10   4 20 14 12 11 
  10  10  10  10  10  10  10  10  10  10  10   3 20 12 10 
   6  10  10  10  10  10  10  10  10  10  10   2 17 11 
   4  10  10  10  10  10  10  10  10  10  10   2 18 13 
   2  10  10  10  10  10  10  10  10  10  10   2 19 16 
   4  10  10  10  10  10  10  10  10  10  10   1 16 
   6  10  10  10  10  10  10  10  10  10  10   1 17 
   2  10  10  10  10  10  10  10  10  10  10   1 16 
   9  10  10  10  10  10  10  10  10  10  10   1 22
   3  10  10  10  10  10  10  10  10  10  10   1 22
   6  10  10  10  10  10  10  10  10  10  10   1 22
  10  10  10  10  10  10  10  10  10  10  10   1 22
   6  10  10  10  10  10  10  10  10  10  10   1 22
   9  10  10  10  10  10  10  10  10  10  10   1 22
   0   0   0   0   0   0   0   0   0   0   0   0 
